60
1 0 13
2 0 18
2 1 14
3 0 7
3 1 2
3 2 5
4 0 13
4 1 13
4 2 14
4 3 18
5 0 1
5 1 18
5 2 6
5 3 1
5 4 20
6 0 14
6 1 7
6 2 5
6 3 17
6 4 10
6 5 2
7 0 2
7 1 5
7 2 1
7 3 7
7 4 4
7 5 4
7 6 11
8 0 11
8 1 4
8 2 5
8 3 13
8 4 1
8 5 6
8 6 4
8 7 4
9 0 17
9 1 7
9 2 15
9 3 12
9 4 17
9 5 18
9 6 12
9 7 5
9 8 6
10 0 10
10 1 20
10 2 19
10 3 16
10 4 19
10 5 12
10 6 4
10 7 16
10 8 19
10 9 15
11 0 7
11 1 4
11 2 15
11 3 12
11 4 5
11 5 12
11 6 8
11 7 8
11 8 4
11 9 7
11 10 2
12 0 12
12 1 2
12 2 2
12 3 13
12 4 18
12 5 18
12 6 20
12 7 11
12 8 5
12 9 18
12 10 6
12 11 12
13 0 17
13 1 18
13 2 7
13 3 11
13 4 8
13 5 3
13 6 1
13 7 4
13 8 20
13 9 16
13 10 6
13 11 5
13 12 6
14 0 8
14 1 20
14 2 13
14 3 2
14 4 17
14 5 13
14 6 3
14 7 13
14 8 19
14 9 11
14 10 12
14 11 8
14 12 2
14 13 8
15 0 17
15 1 6
15 2 12
15 3 7
15 4 6
15 5 2
15 6 12
15 7 20
15 8 2
15 9 20
15 10 7
15 11 10
15 12 19
15 13 12
15 14 19
16 0 10
16 1 6
16 2 17
16 3 20
16 4 15
16 5 6
16 6 1
16 7 17
16 8 19
16 9 8
16 10 7
16 11 14
16 12 9
16 13 2
16 14 1
16 15 18
17 0 15
17 1 15
17 2 16
17 3 8
17 4 20
17 5 9
17 6 1
17 7 19
17 8 18
17 9 17
17 10 17
17 11 9
17 12 9
17 13 18
17 14 3
17 15 20
17 16 6
18 0 17
18 1 5
18 2 2
18 3 9
18 4 17
18 5 17
18 6 1
18 7 7
18 8 20
18 9 14
18 10 13
18 11 10
18 12 13
18 13 16
18 14 8
18 15 3
18 16 13
18 17 14
19 0 3
19 1 7
19 2 6
19 3 12
19 4 1
19 5 18
19 6 11
19 7 15
19 8 6
19 9 14
19 10 13
19 11 18
19 12 5
19 13 9
19 14 8
19 15 12
19 16 3
19 17 5
19 18 7
20 0 4
20 1 5
20 2 14
20 3 18
20 4 14
20 5 20
20 6 1
20 7 3
20 8 20
20 9 11
20 10 20
20 11 17
20 12 13
20 13 16
20 14 19
20 15 18
20 16 18
20 17 16
20 18 16
20 19 18
21 0 1
21 1 3
21 2 7
21 3 6
21 4 16
21 5 12
21 6 19
21 7 11
21 8 4
21 9 9
21 10 10
21 11 18
21 12 15
21 13 15
21 14 10
21 15 3
21 16 4
21 17 19
21 18 12
21 19 17
21 20 20
22 0 10
22 1 18
22 2 15
22 3 18
22 4 18
22 5 12
22 6 8
22 7 14
22 8 4
22 9 18
22 10 20
22 11 9
22 12 3
22 13 20
22 14 11
22 15 7
22 16 18
22 17 20
22 18 6
22 19 10
22 20 12
22 21 20
23 0 16
23 1 16
23 2 12
23 3 19
23 4 8
23 5 17
23 6 10
23 7 1
23 8 2
23 9 4
23 10 2
23 11 12
23 12 12
23 13 3
23 14 18
23 15 8
23 16 10
23 17 15
23 18 13
23 19 7
23 20 12
23 21 16
23 22 18
24 0 4
24 1 8
24 2 13
24 3 7
24 4 18
24 5 9
24 6 16
24 7 16
24 8 12
24 9 7
24 10 10
24 11 1
24 12 19
24 13 5
24 14 2
24 15 11
24 16 6
24 17 13
24 18 19
24 19 6
24 20 18
24 21 11
24 22 14
24 23 13
25 0 11
25 1 20
25 2 3
25 3 13
25 4 10
25 5 14
25 6 4
25 7 11
25 8 15
25 9 7
25 10 1
25 11 19
25 12 16
25 13 5
25 14 8
25 15 8
25 16 5
25 17 19
25 18 9
25 19 20
25 20 11
25 21 13
25 22 17
25 23 10
25 24 10
26 0 19
26 1 9
26 2 9
26 3 8
26 4 4
26 5 19
26 6 17
26 7 6
26 8 1
26 9 20
26 10 17
26 11 7
26 12 17
26 13 15
26 14 10
26 15 11
26 16 20
26 17 6
26 18 15
26 19 17
26 20 9
26 21 5
26 22 4
26 23 20
26 24 9
26 25 20
27 0 7
27 1 8
27 2 6
27 3 12
27 4 10
27 5 13
27 6 14
27 7 13
27 8 17
27 9 13
27 10 4
27 11 14
27 12 3
27 13 16
27 14 10
27 15 7
27 16 15
27 17 2
27 18 11
27 19 10
27 20 12
27 21 5
27 22 6
27 23 4
27 24 12
27 25 19
27 26 19
28 0 2
28 1 17
28 2 15
28 3 19
28 4 15
28 5 8
28 6 7
28 7 3
28 8 6
28 9 19
28 10 13
28 11 4
28 12 1
28 13 20
28 14 19
28 15 7
28 16 16
28 17 2
28 18 4
28 19 11
28 20 4
28 21 18
28 22 2
28 23 13
28 24 8
28 25 12
28 26 9
28 27 19
29 0 16
29 1 3
29 2 15
29 3 1
29 4 4
29 5 5
29 6 2
29 7 16
29 8 14
29 9 8
29 10 8
29 11 12
29 12 1
29 13 18
29 14 4
29 15 14
29 16 18
29 17 3
29 18 4
29 19 2
29 20 5
29 21 18
29 22 4
29 23 18
29 24 5
29 25 9
29 26 20
29 27 17
29 28 4
30 0 15
30 1 8
30 2 18
30 3 3
30 4 10
30 5 8
30 6 1
30 7 8
30 8 2
30 9 11
30 10 3
30 11 20
30 12 14
30 13 11
30 14 4
30 15 8
30 16 10
30 17 13
30 18 20
30 19 15
30 20 12
30 21 17
30 22 2
30 23 18
30 24 9
30 25 7
30 26 7
30 27 18
30 28 9
30 29 8
31 0 1
31 1 5
31 2 18
31 3 2
31 4 15
31 5 4
31 6 12
31 7 11
31 8 10
31 9 18
31 10 2
31 11 2
31 12 10
31 13 3
31 14 9
31 15 20
31 16 15
31 17 17
31 18 6
31 19 1
31 20 12
31 21 13
31 22 5
31 23 16
31 24 8
31 25 10
31 26 6
31 27 14
31 28 20
31 29 6
31 30 6
32 0 15
32 1 13
32 2 12
32 3 2
32 4 20
32 5 2
32 6 12
32 7 10
32 8 9
32 9 12
32 10 4
32 11 11
32 12 5
32 13 17
32 14 9
32 15 15
32 16 12
32 17 19
32 18 1
32 19 13
32 20 17
32 21 4
32 22 16
32 23 15
32 24 8
32 25 19
32 26 11
32 27 4
32 28 15
32 29 19
32 30 17
32 31 5
33 0 9
33 1 4
33 2 13
33 3 20
33 4 2
33 5 20
33 6 20
33 7 20
33 8 9
33 9 14
33 10 2
33 11 12
33 12 2
33 13 5
33 14 7
33 15 4
33 16 4
33 17 13
33 18 12
33 19 6
33 20 18
33 21 6
33 22 13
33 23 5
33 24 3
33 25 3
33 26 6
33 27 10
33 28 9
33 29 8
33 30 12
33 31 13
33 32 12
34 0 9
34 1 6
34 2 3
34 3 14
34 4 6
34 5 8
34 6 15
34 7 4
34 8 14
34 9 8
34 10 15
34 11 17
34 12 5
34 13 2
34 14 4
34 15 3
34 16 7
34 17 17
34 18 10
34 19 10
34 20 6
34 21 16
34 22 10
34 23 16
34 24 19
34 25 10
34 26 15
34 27 20
34 28 4
34 29 15
34 30 8
34 31 20
34 32 5
34 33 15
35 0 11
35 1 7
35 2 1
35 3 10
35 4 19
35 5 11
35 6 6
35 7 1
35 8 3
35 9 4
35 10 3
35 11 13
35 12 12
35 13 12
35 14 11
35 15 20
35 16 16
35 17 20
35 18 20
35 19 14
35 20 7
35 21 5
35 22 10
35 23 8
35 24 13
35 25 16
35 26 7
35 27 17
35 28 8
35 29 20
35 30 8
35 31 8
35 32 17
35 33 16
35 34 1
36 0 10
36 1 13
36 2 6
36 3 13
36 4 17
36 5 3
36 6 15
36 7 13
36 8 16
36 9 16
36 10 2
36 11 4
36 12 18
36 13 19
36 14 20
36 15 5
36 16 18
36 17 6
36 18 5
36 19 9
36 20 13
36 21 20
36 22 7
36 23 4
36 24 10
36 25 19
36 26 7
36 27 10
36 28 14
36 29 1
36 30 19
36 31 2
36 32 17
36 33 20
36 34 6
36 35 11
37 0 10
37 1 14
37 2 7
37 3 19
37 4 14
37 5 4
37 6 12
37 7 20
37 8 20
37 9 18
37 10 2
37 11 19
37 12 11
37 13 14
37 14 11
37 15 8
37 16 4
37 17 14
37 18 5
37 19 19
37 20 8
37 21 3
37 22 6
37 23 2
37 24 6
37 25 13
37 26 12
37 27 10
37 28 5
37 29 18
37 30 2
37 31 1
37 32 9
37 33 11
37 34 16
37 35 8
37 36 4
38 0 19
38 1 11
38 2 1
38 3 3
38 4 12
38 5 16
38 6 17
38 7 14
38 8 6
38 9 12
38 10 7
38 11 3
38 12 5
38 13 17
38 14 3
38 15 1
38 16 5
38 17 4
38 18 5
38 19 12
38 20 3
38 21 9
38 22 8
38 23 13
38 24 6
38 25 2
38 26 11
38 27 16
38 28 17
38 29 12
38 30 15
38 31 9
38 32 17
38 33 8
38 34 19
38 35 12
38 36 18
38 37 10
39 0 11
39 1 18
39 2 11
39 3 15
39 4 18
39 5 18
39 6 6
39 7 10
39 8 20
39 9 19
39 10 3
39 11 16
39 12 16
39 13 19
39 14 9
39 15 1
39 16 3
39 17 1
39 18 12
39 19 7
39 20 11
39 21 3
39 22 12
39 23 4
39 24 14
39 25 19
39 26 4
39 27 18
39 28 7
39 29 19
39 30 15
39 31 7
39 32 7
39 33 5
39 34 1
39 35 15
39 36 18
39 37 12
39 38 20
40 0 3
40 1 15
40 2 7
40 3 14
40 4 16
40 5 18
40 6 6
40 7 6
40 8 11
40 9 17
40 10 8
40 11 19
40 12 10
40 13 18
40 14 14
40 15 16
40 16 14
40 17 4
40 18 5
40 19 17
40 20 16
40 21 10
40 22 20
40 23 9
40 24 3
40 25 6
40 26 7
40 27 1
40 28 20
40 29 16
40 30 9
40 31 4
40 32 8
40 33 2
40 34 1
40 35 6
40 36 18
40 37 7
40 38 10
40 39 13
41 0 18
41 1 15
41 2 12
41 3 18
41 4 13
41 5 3
41 6 19
41 7 4
41 8 14
41 9 18
41 10 6
41 11 18
41 12 16
41 13 7
41 14 10
41 15 8
41 16 5
41 17 15
41 18 1
41 19 15
41 20 7
41 21 19
41 22 12
41 23 3
41 24 10
41 25 15
41 26 10
41 27 1
41 28 16
41 29 19
41 30 13
41 31 2
41 32 8
41 33 9
41 34 5
41 35 14
41 36 5
41 37 1
41 38 13
41 39 7
41 40 9
42 0 10
42 1 15
42 2 17
42 3 9
42 4 4
42 5 9
42 6 5
42 7 9
42 8 17
42 9 11
42 10 12
42 11 17
42 12 20
42 13 14
42 14 16
42 15 1
42 16 12
42 17 13
42 18 5
42 19 18
42 20 2
42 21 12
42 22 3
42 23 17
42 24 11
42 25 15
42 26 11
42 27 2
42 28 18
42 29 16
42 30 6
42 31 8
42 32 6
42 33 9
42 34 6
42 35 1
42 36 1
42 37 12
42 38 8
42 39 20
42 40 14
42 41 1
43 0 20
43 1 19
43 2 12
43 3 5
43 4 1
43 5 20
43 6 6
43 7 14
43 8 19
43 9 8
43 10 18
43 11 7
43 12 18
43 13 7
43 14 19
43 15 1
43 16 3
43 17 2
43 18 1
43 19 8
43 20 18
43 21 11
43 22 7
43 23 18
43 24 20
43 25 13
43 26 18
43 27 10
43 28 6
43 29 7
43 30 20
43 31 20
43 32 9
43 33 2
43 34 6
43 35 3
43 36 8
43 37 11
43 38 11
43 39 7
43 40 3
43 41 2
43 42 19
44 0 7
44 1 5
44 2 5
44 3 3
44 4 12
44 5 5
44 6 8
44 7 3
44 8 13
44 9 1
44 10 17
44 11 4
44 12 9
44 13 12
44 14 16
44 15 6
44 16 11
44 17 3
44 18 5
44 19 6
44 20 14
44 21 1
44 22 19
44 23 9
44 24 16
44 25 5
44 26 5
44 27 13
44 28 5
44 29 8
44 30 7
44 31 8
44 32 1
44 33 5
44 34 1
44 35 19
44 36 7
44 37 14
44 38 20
44 39 13
44 40 9
44 41 7
44 42 12
44 43 19
45 0 1
45 1 15
45 2 11
45 3 15
45 4 15
45 5 18
45 6 9
45 7 12
45 8 6
45 9 19
45 10 20
45 11 7
45 12 20
45 13 5
45 14 9
45 15 16
45 16 7
45 17 20
45 18 17
45 19 9
45 20 2
45 21 15
45 22 6
45 23 11
45 24 9
45 25 5
45 26 18
45 27 6
45 28 12
45 29 10
45 30 1
45 31 18
45 32 4
45 33 18
45 34 7
45 35 17
45 36 10
45 37 18
45 38 15
45 39 10
45 40 16
45 41 14
45 42 13
45 43 13
45 44 17
46 0 15
46 1 13
46 2 9
46 3 10
46 4 10
46 5 15
46 6 20
46 7 3
46 8 11
46 9 11
46 10 1
46 11 8
46 12 11
46 13 18
46 14 7
46 15 12
46 16 8
46 17 5
46 18 18
46 19 17
46 20 3
46 21 19
46 22 3
46 23 18
46 24 8
46 25 16
46 26 16
46 27 17
46 28 11
46 29 2
46 30 18
46 31 9
46 32 6
46 33 4
46 34 18
46 35 9
46 36 5
46 37 9
46 38 14
46 39 14
46 40 20
46 41 1
46 42 1
46 43 16
46 44 19
46 45 12
47 0 3
47 1 12
47 2 19
47 3 6
47 4 14
47 5 6
47 6 4
47 7 6
47 8 3
47 9 3
47 10 13
47 11 4
47 12 15
47 13 15
47 14 3
47 15 4
47 16 14
47 17 3
47 18 18
47 19 4
47 20 11
47 21 16
47 22 11
47 23 7
47 24 11
47 25 3
47 26 4
47 27 1
47 28 14
47 29 5
47 30 12
47 31 1
47 32 6
47 33 6
47 34 4
47 35 19
47 36 9
47 37 5
47 38 8
47 39 9
47 40 18
47 41 18
47 42 11
47 43 2
47 44 14
47 45 4
47 46 14
48 0 8
48 1 10
48 2 5
48 3 9
48 4 11
48 5 6
48 6 18
48 7 5
48 8 2
48 9 6
48 10 8
48 11 14
48 12 6
48 13 8
48 14 7
48 15 1
48 16 20
48 17 10
48 18 16
48 19 16
48 20 11
48 21 20
48 22 7
48 23 9
48 24 9
48 25 10
48 26 17
48 27 19
48 28 7
48 29 3
48 30 6
48 31 7
48 32 12
48 33 11
48 34 17
48 35 5
48 36 13
48 37 1
48 38 15
48 39 20
48 40 5
48 41 16
48 42 5
48 43 12
48 44 4
48 45 2
48 46 11
48 47 12
49 0 12
49 1 7
49 2 11
49 3 10
49 4 1
49 5 7
49 6 11
49 7 8
49 8 6
49 9 4
49 10 16
49 11 3
49 12 9
49 13 12
49 14 12
49 15 15
49 16 4
49 17 14
49 18 20
49 19 8
49 20 10
49 21 1
49 22 15
49 23 16
49 24 3
49 25 9
49 26 17
49 27 2
49 28 12
49 29 15
49 30 20
49 31 12
49 32 7
49 33 8
49 34 5
49 35 9
49 36 19
49 37 1
49 38 14
49 39 9
49 40 17
49 41 1
49 42 11
49 43 5
49 44 3
49 45 9
49 46 15
49 47 10
49 48 15
50 0 11
50 1 6
50 2 19
50 3 8
50 4 6
50 5 17
50 6 7
50 7 2
50 8 13
50 9 15
50 10 20
50 11 17
50 12 11
50 13 13
50 14 1
50 15 20
50 16 1
50 17 15
50 18 13
50 19 20
50 20 14
50 21 9
50 22 3
50 23 12
50 24 7
50 25 15
50 26 9
50 27 13
50 28 19
50 29 11
50 30 6
50 31 3
50 32 1
50 33 2
50 34 14
50 35 2
50 36 20
50 37 8
50 38 9
50 39 17
50 40 20
50 41 19
50 42 18
50 43 9
50 44 11
50 45 18
50 46 17
50 47 9
50 48 4
50 49 20
51 0 9
51 1 5
51 2 4
51 3 10
51 4 19
51 5 16
51 6 15
51 7 19
51 8 13
51 9 8
51 10 1
51 11 16
51 12 13
51 13 6
51 14 13
51 15 4
51 16 5
51 17 10
51 18 18
51 19 18
51 20 8
51 21 20
51 22 19
51 23 13
51 24 16
51 25 4
51 26 20
51 27 15
51 28 6
51 29 14
51 30 12
51 31 18
51 32 15
51 33 19
51 34 5
51 35 19
51 36 7
51 37 3
51 38 2
51 39 3
51 40 14
51 41 19
51 42 5
51 43 5
51 44 18
51 45 6
51 46 19
51 47 15
51 48 15
51 49 13
51 50 16
52 0 20
52 1 9
52 2 9
52 3 4
52 4 3
52 5 7
52 6 20
52 7 14
52 8 8
52 9 9
52 10 14
52 11 5
52 12 5
52 13 10
52 14 10
52 15 15
52 16 15
52 17 12
52 18 17
52 19 8
52 20 5
52 21 19
52 22 1
52 23 17
52 24 11
52 25 2
52 26 19
52 27 20
52 28 7
52 29 19
52 30 14
52 31 15
52 32 11
52 33 2
52 34 13
52 35 16
52 36 19
52 37 6
52 38 15
52 39 9
52 40 11
52 41 9
52 42 6
52 43 18
52 44 11
52 45 5
52 46 3
52 47 5
52 48 6
52 49 19
52 50 8
52 51 11
53 0 10
53 1 10
53 2 6
53 3 6
53 4 1
53 5 1
53 6 2
53 7 15
53 8 15
53 9 17
53 10 13
53 11 15
53 12 5
53 13 12
53 14 4
53 15 20
53 16 6
53 17 20
53 18 6
53 19 8
53 20 20
53 21 4
53 22 2
53 23 6
53 24 1
53 25 7
53 26 5
53 27 3
53 28 8
53 29 20
53 30 14
53 31 11
53 32 10
53 33 15
53 34 3
53 35 12
53 36 14
53 37 18
53 38 3
53 39 8
53 40 19
53 41 1
53 42 8
53 43 19
53 44 15
53 45 9
53 46 2
53 47 5
53 48 10
53 49 14
53 50 6
53 51 13
53 52 13
54 0 8
54 1 10
54 2 13
54 3 13
54 4 8
54 5 15
54 6 7
54 7 3
54 8 7
54 9 14
54 10 1
54 11 7
54 12 13
54 13 20
54 14 17
54 15 2
54 16 9
54 17 5
54 18 17
54 19 18
54 20 2
54 21 12
54 22 1
54 23 8
54 24 10
54 25 7
54 26 18
54 27 12
54 28 20
54 29 3
54 30 8
54 31 9
54 32 5
54 33 7
54 34 2
54 35 13
54 36 16
54 37 9
54 38 12
54 39 1
54 40 13
54 41 9
54 42 12
54 43 4
54 44 6
54 45 15
54 46 10
54 47 6
54 48 11
54 49 3
54 50 1
54 51 10
54 52 19
54 53 13
55 0 18
55 1 6
55 2 15
55 3 20
55 4 8
55 5 3
55 6 6
55 7 19
55 8 8
55 9 5
55 10 15
55 11 3
55 12 2
55 13 17
55 14 20
55 15 15
55 16 17
55 17 11
55 18 6
55 19 20
55 20 5
55 21 10
55 22 3
55 23 20
55 24 17
55 25 13
55 26 13
55 27 19
55 28 9
55 29 12
55 30 8
55 31 9
55 32 12
55 33 5
55 34 7
55 35 1
55 36 18
55 37 11
55 38 20
55 39 4
55 40 12
55 41 15
55 42 2
55 43 13
55 44 15
55 45 4
55 46 17
55 47 10
55 48 11
55 49 5
55 50 16
55 51 6
55 52 15
55 53 12
55 54 12
56 0 18
56 1 8
56 2 17
56 3 1
56 4 4
56 5 10
56 6 14
56 7 9
56 8 7
56 9 4
56 10 7
56 11 7
56 12 8
56 13 10
56 14 10
56 15 5
56 16 1
56 17 4
56 18 6
56 19 20
56 20 3
56 21 6
56 22 2
56 23 7
56 24 2
56 25 8
56 26 15
56 27 2
56 28 1
56 29 4
56 30 18
56 31 5
56 32 18
56 33 8
56 34 16
56 35 8
56 36 14
56 37 16
56 38 2
56 39 13
56 40 2
56 41 19
56 42 5
56 43 19
56 44 11
56 45 13
56 46 5
56 47 1
56 48 17
56 49 9
56 50 20
56 51 8
56 52 19
56 53 9
56 54 18
56 55 11
57 0 4
57 1 7
57 2 8
57 3 18
57 4 14
57 5 2
57 6 11
57 7 7
57 8 16
57 9 18
57 10 9
57 11 20
57 12 8
57 13 16
57 14 11
57 15 13
57 16 16
57 17 14
57 18 18
57 19 17
57 20 17
57 21 16
57 22 3
57 23 16
57 24 7
57 25 12
57 26 9
57 27 8
57 28 12
57 29 18
57 30 1
57 31 9
57 32 15
57 33 6
57 34 8
57 35 7
57 36 7
57 37 4
57 38 12
57 39 7
57 40 13
57 41 14
57 42 14
57 43 8
57 44 6
57 45 20
57 46 7
57 47 9
57 48 15
57 49 10
57 50 8
57 51 16
57 52 2
57 53 7
57 54 20
57 55 14
57 56 7
58 0 14
58 1 13
58 2 4
58 3 13
58 4 12
58 5 19
58 6 20
58 7 17
58 8 6
58 9 12
58 10 2
58 11 10
58 12 9
58 13 12
58 14 2
58 15 12
58 16 3
58 17 9
58 18 11
58 19 11
58 20 10
58 21 5
58 22 19
58 23 5
58 24 13
58 25 3
58 26 19
58 27 10
58 28 12
58 29 11
58 30 2
58 31 16
58 32 16
58 33 20
58 34 20
58 35 13
58 36 6
58 37 17
58 38 17
58 39 11
58 40 5
58 41 10
58 42 1
58 43 2
58 44 17
58 45 16
58 46 5
58 47 18
58 48 1
58 49 7
58 50 8
58 51 1
58 52 4
58 53 4
58 54 5
58 55 15
58 56 9
58 57 7
59 0 3
59 1 16
59 2 14
59 3 13
59 4 20
59 5 13
59 6 10
59 7 4
59 8 16
59 9 18
59 10 16
59 11 13
59 12 10
59 13 20
59 14 17
59 15 19
59 16 10
59 17 11
59 18 10
59 19 18
59 20 18
59 21 13
59 22 17
59 23 16
59 24 6
59 25 12
59 26 9
59 27 8
59 28 4
59 29 9
59 30 8
59 31 7
59 32 10
59 33 17
59 34 7
59 35 20
59 36 6
59 37 15
59 38 3
59 39 1
59 40 11
59 41 12
59 42 12
59 43 1
59 44 16
59 45 4
59 46 9
59 47 7
59 48 14
59 49 6
59 50 4
59 51 18
59 52 15
59 53 16
59 54 20
59 55 17
59 56 4
59 57 11
59 58 8
